NAME          
ROWS
 N  OBJ
 L  c1
 L  c2
COLUMNS
    MARKER    'MARKER'                 'INTORG'
    x[1]      c1        783
    x[1]      c2        651
    x[1]      OBJ       -56
    x[2]      c1        233
    x[2]      c2        588
    x[2]      OBJ       -882
    x[3]      c1        841
    x[3]      c2        599
    x[3]      OBJ       -108
    x[4]      c1        731
    x[4]      c2        947
    x[4]      OBJ       -90
    x[5]      c1        580
    x[5]      c2        875
    x[5]      OBJ       -701
    x[6]      c1        222
    x[6]      c2        59
    x[6]      OBJ       -773
    x[7]      c1        922
    x[7]      c2        178
    x[7]      OBJ       -699
    x[8]      c1        668
    x[8]      c2        731
    x[8]      OBJ       -310
    x[9]      c1        618
    x[9]      c2        105
    x[9]      OBJ       -559
    x[10]     c1        677
    x[10]     c2        473
    x[10]     OBJ       -256
    x[11]     c1        992
    x[11]     c2        304
    x[11]     OBJ       -885
    x[12]     c1        520
    x[12]     c2        686
    x[12]     OBJ       -308
    x[13]     c1        329
    x[13]     c2        579
    x[13]     OBJ       -737
    x[14]     c1        298
    x[14]     c2        506
    x[14]     OBJ       -577
    x[15]     c1        690
    x[15]     c2        262
    x[15]     OBJ       -824
    x[16]     c1        575
    x[16]     c2        724
    x[16]     OBJ       -427
    x[17]     c1        903
    x[17]     c2        918
    x[17]     OBJ       -678
    x[18]     c1        499
    x[18]     c2        388
    x[18]     OBJ       -500
    x[19]     c1        978
    x[19]     c2        46
    x[19]     OBJ       -534
    x[20]     c1        768
    x[20]     c2        137
    x[20]     OBJ       -697
    x[21]     c1        187
    x[21]     c2        62
    x[21]     OBJ       -112
    x[22]     c1        940
    x[22]     c2        730
    x[22]     OBJ       -790
    x[23]     c1        947
    x[23]     c2        426
    x[23]     OBJ       -892
    x[24]     c1        538
    x[24]     c2        178
    x[24]     OBJ       -263
    x[25]     c1        819
    x[25]     c2        612
    x[25]     OBJ       -239
RHS
    rhs       c1        8129
    rhs       c2        5882
RANGES
BOUNDS
 BV bounds    x[1]
 BV bounds    x[2]
 BV bounds    x[3]
 BV bounds    x[4]
 BV bounds    x[5]
 BV bounds    x[6]
 BV bounds    x[7]
 BV bounds    x[8]
 BV bounds    x[9]
 BV bounds    x[10]
 BV bounds    x[11]
 BV bounds    x[12]
 BV bounds    x[13]
 BV bounds    x[14]
 BV bounds    x[15]
 BV bounds    x[16]
 BV bounds    x[17]
 BV bounds    x[18]
 BV bounds    x[19]
 BV bounds    x[20]
 BV bounds    x[21]
 BV bounds    x[22]
 BV bounds    x[23]
 BV bounds    x[24]
 BV bounds    x[25]
ENDATA
